15	53
0	2	98
0	3	33
0	5	25
0	7	21
0	8	63
0	10	84
0	11	2
0	12	89
1	2	88
1	3	74
1	4	14
1	5	65
1	7	69
1	14	23
2	6	93
2	7	63
2	8	57
2	9	29
2	10	2
2	13	99
3	4	28
3	5	89
3	6	92
3	7	89
3	8	97
3	10	84
3	12	1
3	13	36
4	5	47
4	6	35
4	8	33
4	14	84
5	6	23
5	12	89
5	13	14
5	14	57
6	7	68
6	8	46
6	12	57
7	8	19
7	10	6
7	14	71
8	9	42
8	11	56
8	12	38
8	14	68
9	12	49
10	13	46
10	14	29
11	13	12
11	14	74
12	13	5
12	14	87
